N = 128;
M = 232;
Edge_Start = [1, 1, 2, 2, 3, 3, 4, 5, 5, 6, 7, 7, 8, 9, 10, 10, 11, 12, 12, 13, 13, 14, 15, 15, 16, 16, 17, 17, 18, 18, 18, 19, 20, 20, 21, 22, 22, 22, 23, 24, 24, 25, 25, 25, 26, 27, 28, 28, 29, 30, 31, 31, 32, 32, 33, 34, 34, 35, 35, 36, 36, 37, 38, 39, 39, 40, 40, 41, 41, 42, 42, 43, 43, 44, 44, 45, 45, 46, 46, 47, 47, 48, 49, 50, 50, 50, 50, 51, 51, 52, 52, 53, 53, 53, 54, 55, 55, 56, 56, 57, 57, 58, 58, 59, 59, 60, 61, 62, 63, 64, 65, 65, 66, 66, 66, 67, 67, 68, 68, 69, 70, 70, 71, 72, 72, 73, 73, 74, 74, 75, 75, 76, 76, 77, 77, 77, 78, 78, 79, 79, 80, 80, 81, 81, 82, 83, 83, 83, 84, 85, 85, 86, 86, 87, 87, 88, 89, 89, 90, 90, 90, 90, 91, 91, 91, 92, 92, 93, 93, 94, 95, 96, 97, 97, 98, 98, 99, 99, 100, 100, 100, 101, 102, 102, 103, 104, 105, 105, 105, 106, 107, 107, 107, 108, 108, 109, 110, 110, 111, 111, 112, 112, 113, 113, 114, 114, 114, 115, 115, 116, 117, 118, 118, 119, 119, 120, 120, 121, 122, 122, 122, 123, 124, 124, 125, 125, 126, 126, 127, 127, 128, 128];
Edge_End = [19, 128, 18, 111, 13, 74, 13, 42, 75, 117, 17, 20, 116, 73, 105, 115, 13, 39, 121, 3, 4, 73, 84, 106, 84, 85, 18, 96, 17, 22, 96, 1, 7, 32, 112, 18, 24, 95, 110, 22, 23, 68, 88, 118, 35, 62, 31, 62, 52, 80, 7, 32, 20, 27, 118, 21, 109, 55, 114, 83, 99, 19, 26, 12, 43, 70, 122, 78, 81, 5, 50, 29, 39, 47, 93, 22, 23, 50, 83, 87, 100, 38, 46, 42, 46, 60, 98, 68, 115, 53, 72, 52, 57, 102, 53, 6, 38, 37, 90, 29, 43, 89, 105, 54, 118, 46, 105, 63, 28, 100, 80, 120, 56, 91, 104, 6, 55, 25, 51, 108, 40, 81, 85, 54, 59, 14, 123, 97, 107, 5, 101, 16, 122, 9, 89, 92, 41, 113, 106, 122, 113, 127, 41, 70, 114, 36, 46, 76, 15, 36, 71, 66, 91, 90, 100, 33, 58, 77, 86, 87, 91, 92, 56, 66, 90, 77, 123, 44, 47, 79, 2, 48, 124, 125, 49, 50, 114, 119, 34, 47, 64, 75, 53, 107, 125, 66, 10, 58, 61, 16, 30, 102, 108, 8, 126, 21, 44, 109, 20, 27, 24, 95, 69, 80, 82, 83, 99, 10, 51, 126, 45, 25, 59, 67, 117, 65, 127, 12, 40, 78, 79, 86, 57, 102, 97, 103, 11, 74, 94, 120, 37, 90];
L = [1, 1, 1, 1, 1, 1, 1, 1, 1, 1, 1, 1, 1, 1, 1, 1, 1, 1, 1, 1, 1, 1, 1, 1, 1, 1, 1, 1, 1, 1, 1, 1, 1, 1, 1, 1, 1, 1, 1, 1, 1, 1, 1, 1, 1, 1, 1, 1, 1, 1, 1, 1, 1, 1, 1, 1, 1, 1, 1, 1, 1, 1, 1, 1, 1, 1, 1, 1, 1, 1, 1, 1, 1, 1, 1, 1, 1, 1, 1, 1, 1, 1, 1, 1, 1, 1, 1, 1, 1, 1, 1, 1, 1, 1, 1, 1, 1, 1, 1, 1, 1, 1, 1, 1, 1, 1, 1, 1, 1, 1, 1, 1, 1, 1, 1, 1, 1, 1, 1, 1, 1, 1, 1, 1, 1, 1, 1, 1, 1, 1, 1, 1, 1, 1, 1, 1, 1, 1, 1, 1, 1, 1, 1, 1, 1, 1, 1, 1, 1, 1, 1, 1, 1, 1, 1, 1, 1, 1, 1, 1, 1, 1, 1, 1, 1, 1, 1, 1, 1, 1, 1, 1, 1, 1, 1, 1, 1, 1, 1, 1, 1, 1, 1, 1, 1, 1, 1, 1, 1, 1, 1, 1, 1, 1, 1, 1, 1, 1, 1, 1, 1, 1, 1, 1, 1, 1, 1, 1, 1, 1, 1, 1, 1, 1, 1, 1, 1, 1, 1, 1, 1, 1, 1, 1, 1, 1, 1, 1, 1, 1, 1, 1];
T = [1, 1, 1, 1, 1, 1, 1, 1, 1, 1, 1, 1, 1, 1, 1, 1, 1, 1, 1, 1, 1, 1, 1, 1, 1, 1, 1, 1, 1, 1, 1, 1, 1, 1, 1, 1, 1, 1, 1, 1, 1, 1, 1, 1, 1, 1, 1, 1, 1, 1, 1, 1, 1, 1, 1, 1, 1, 1, 1, 1, 1, 1, 1, 1, 1, 1, 1, 1, 1, 1, 1, 1, 1, 1, 1, 1, 1, 1, 1, 1, 1, 1, 1, 1, 1, 1, 1, 1, 1, 1, 1, 1, 1, 1, 1, 1, 1, 1, 1, 1, 1, 1, 1, 1, 1, 1, 1, 1, 1, 1, 1, 1, 1, 1, 1, 1, 1, 1, 1, 1, 1, 1, 1, 1, 1, 1, 1, 1, 1, 1, 1, 1, 1, 1, 1, 1, 1, 1, 1, 1, 1, 1, 1, 1, 1, 1, 1, 1, 1, 1, 1, 1, 1, 1, 1, 1, 1, 1, 1, 1, 1, 1, 1, 1, 1, 1, 1, 1, 1, 1, 1, 1, 1, 1, 1, 1, 1, 1, 1, 1, 1, 1, 1, 1, 1, 1, 1, 1, 1, 1, 1, 1, 1, 1, 1, 1, 1, 1, 1, 1, 1, 1, 1, 1, 1, 1, 1, 1, 1, 1, 1, 1, 1, 1, 1, 1, 1, 1, 1, 1, 1, 1, 1, 1, 1, 1, 1, 1, 1, 1, 1, 1];
Lower_Bound = [19, 11, 9, 9, 9, 8, 14, 6, 17, 19, 7, 13, 8, 19, 4, 2, 11, 10, 18, 13, 12, 9, 9, 10, 15, 10, 13, 16, 11, 9, 17, 14, 17, 14, 11, 4, 17, 9, 12, 2, 3, 8, 11, 11, 8, 6, 12, 12, 9, 7, 17, 11, 10, 13, 8, 16, 10, 18, 13, 8, 20, 14, 15, 14, 7, 16, 7, 16, 4, 3, 4, 12, 18, 7, 10, 6, 16, 2, 0, 4, 4, 7, 5, 3, 3, 15, 13, 16, 17, 14, 15, 15, 12, 6, 10, 11, 8, 8, 5, 13, 11, 9, 10, 17, 19, 1, 8, 5, 11, 10, 12, 13, 3, 6, 18, 7, 7, 14, 6, 6, 14, 1, 16, 9, 9, 6, 5, 20];
Upper_Bound = [19, 11, 9, 10, 9, 9, 15, 7, 18, 19, 7, 13, 9, 19, 5, 2, 12, 11, 19, 14, 13, 9, 9, 10, 15, 11, 14, 17, 11, 9, 17, 14, 18, 15, 11, 5, 18, 9, 12, 3, 4, 9, 12, 12, 8, 6, 13, 12, 10, 8, 17, 12, 11, 13, 8, 16, 10, 19, 13, 9, 20, 14, 15, 15, 7, 17, 8, 17, 4, 3, 5, 12, 18, 7, 11, 6, 17, 2, 1, 5, 5, 7, 5, 4, 4, 15, 14, 17, 18, 14, 15, 15, 13, 7, 11, 12, 9, 9, 5, 14, 12, 10, 11, 17, 20, 1, 8, 5, 12, 10, 12, 14, 4, 7, 19, 7, 7, 15, 7, 6, 14, 2, 16, 9, 10, 6, 5, 20];
Start = 79;
End = 89;
Time = 18;
